% Auto-generated by scripts/generate_dzn.py
% problem_type   = regex
% instance       = regex_7
% source_json    = instances_json/1_medium_blowup/regex_7.json
% blowup         = 6.125
% representation = NFA

mode = 1;

var_count = 14;
Q = 8;
S = 3;
q0 = 1;
F = {8};
d_dfa = array2d(1..8, 1..3, [
  0, 0, 0,
  0, 0, 0,
  0, 0, 0,
  0, 0, 0,
  0, 0, 0,
  0, 0, 0,
  0, 0, 0,
  0, 0, 0
]);
d_nfa = array2d(1..8, 1..3, [
  {1}, {1, 2}, {1},
  {}, {3}, {},
  {4}, {4}, {4},
  {5}, {5}, {5},
  {6}, {6}, {6},
  {7}, {7}, {7},
  {8}, {8}, {8},
  {}, {}, {}
]);
